c Reduced graph for zeroin.i.2 generated by Cyril Grelier
p edge 108 2339
e 1 2
e 1 3
e 1 4
e 1 5
e 1 7
e 1 8
e 1 10
e 1 11
e 1 12
e 1 13
e 1 14
e 1 15
e 1 16
e 1 17
e 1 18
e 1 19
e 1 20
e 1 21
e 1 23
e 1 24
e 1 25
e 1 26
e 1 27
e 1 28
e 1 29
e 1 30
e 1 32
e 1 33
e 1 34
e 1 37
e 1 38
e 1 39
e 1 40
e 1 41
e 1 42
e 1 43
e 1 44
e 1 48
e 1 49
e 1 50
e 1 51
e 1 53
e 1 54
e 1 55
e 1 56
e 1 57
e 1 58
e 1 59
e 1 60
e 1 61
e 1 62
e 1 63
e 1 64
e 1 65
e 1 66
e 1 68
e 1 70
e 1 71
e 1 72
e 1 73
e 1 74
e 1 75
e 1 76
e 1 77
e 1 78
e 1 79
e 1 81
e 1 82
e 1 83
e 1 85
e 1 86
e 1 88
e 1 89
e 1 90
e 1 91
e 1 92
e 1 93
e 1 94
e 1 95
e 1 96
e 1 97
e 1 98
e 1 99
e 1 100
e 1 101
e 1 102
e 1 103
e 1 104
e 1 105
e 1 106
e 1 107
e 2 3
e 2 6
e 2 7
e 2 8
e 2 16
e 2 17
e 2 20
e 2 21
e 2 27
e 2 34
e 2 43
e 2 44
e 2 48
e 2 50
e 2 51
e 2 55
e 2 56
e 2 58
e 2 60
e 2 61
e 2 62
e 2 63
e 2 64
e 2 67
e 2 68
e 2 74
e 2 75
e 2 83
e 2 88
e 2 92
e 2 96
e 2 97
e 2 102
e 2 103
e 2 107
e 3 6
e 3 7
e 3 8
e 3 16
e 3 20
e 3 21
e 3 34
e 3 43
e 3 44
e 3 50
e 3 51
e 3 55
e 3 56
e 3 60
e 3 61
e 3 62
e 3 63
e 3 64
e 3 67
e 3 68
e 3 83
e 3 88
e 3 92
e 3 96
e 3 97
e 3 102
e 3 103
e 3 107
e 4 6
e 4 8
e 4 9
e 4 22
e 4 31
e 4 34
e 4 35
e 4 36
e 4 43
e 4 45
e 4 46
e 4 47
e 4 50
e 4 52
e 4 55
e 4 56
e 4 60
e 4 61
e 4 67
e 4 68
e 4 69
e 4 80
e 4 83
e 4 84
e 4 87
e 4 107
e 4 108
e 5 6
e 5 7
e 5 8
e 5 16
e 5 17
e 5 18
e 5 20
e 5 21
e 5 29
e 5 34
e 5 43
e 5 44
e 5 50
e 5 51
e 5 55
e 5 56
e 5 60
e 5 61
e 5 62
e 5 63
e 5 64
e 5 67
e 5 68
e 5 83
e 5 96
e 5 107
e 6 9
e 6 10
e 6 11
e 6 12
e 6 13
e 6 14
e 6 15
e 6 16
e 6 17
e 6 18
e 6 19
e 6 21
e 6 22
e 6 23
e 6 24
e 6 25
e 6 26
e 6 27
e 6 28
e 6 29
e 6 30
e 6 31
e 6 32
e 6 33
e 6 35
e 6 36
e 6 37
e 6 38
e 6 39
e 6 40
e 6 41
e 6 42
e 6 44
e 6 45
e 6 46
e 6 47
e 6 48
e 6 49
e 6 52
e 6 53
e 6 54
e 6 57
e 6 58
e 6 59
e 6 62
e 6 64
e 6 65
e 6 66
e 6 67
e 6 69
e 6 70
e 6 71
e 6 72
e 6 73
e 6 74
e 6 75
e 6 76
e 6 77
e 6 78
e 6 79
e 6 80
e 6 81
e 6 82
e 6 84
e 6 85
e 6 86
e 6 87
e 6 88
e 6 89
e 6 90
e 6 91
e 6 92
e 6 93
e 6 94
e 6 95
e 6 96
e 6 97
e 6 98
e 6 99
e 6 100
e 6 101
e 6 102
e 6 103
e 6 104
e 6 105
e 6 106
e 6 108
e 7 8
e 7 10
e 7 11
e 7 12
e 7 13
e 7 14
e 7 15
e 7 16
e 7 17
e 7 18
e 7 19
e 7 20
e 7 21
e 7 23
e 7 24
e 7 25
e 7 26
e 7 27
e 7 28
e 7 29
e 7 30
e 7 32
e 7 33
e 7 34
e 7 37
e 7 38
e 7 39
e 7 40
e 7 41
e 7 42
e 7 43
e 7 44
e 7 48
e 7 49
e 7 50
e 7 51
e 7 53
e 7 54
e 7 55
e 7 56
e 7 57
e 7 58
e 7 59
e 7 60
e 7 61
e 7 62
e 7 63
e 7 64
e 7 65
e 7 66
e 7 68
e 7 70
e 7 72
e 7 74
e 7 75
e 7 76
e 7 77
e 7 78
e 7 82
e 7 83
e 7 85
e 7 86
e 7 88
e 7 89
e 7 92
e 7 93
e 7 94
e 7 95
e 7 96
e 7 97
e 7 98
e 7 99
e 7 100
e 7 101
e 7 102
e 7 103
e 7 104
e 7 105
e 7 106
e 7 107
e 8 10
e 8 11
e 8 12
e 8 13
e 8 14
e 8 15
e 8 16
e 8 17
e 8 18
e 8 19
e 8 20
e 8 21
e 8 23
e 8 24
e 8 25
e 8 26
e 8 27
e 8 28
e 8 29
e 8 30
e 8 32
e 8 33
e 8 34
e 8 37
e 8 38
e 8 39
e 8 41
e 8 42
e 8 43
e 8 44
e 8 48
e 8 49
e 8 50
e 8 51
e 8 53
e 8 54
e 8 55
e 8 56
e 8 58
e 8 59
e 8 60
e 8 61
e 8 62
e 8 63
e 8 64
e 8 65
e 8 66
e 8 68
e 8 70
e 8 71
e 8 72
e 8 73
e 8 74
e 8 75
e 8 76
e 8 77
e 8 78
e 8 79
e 8 82
e 8 83
e 8 88
e 8 89
e 8 90
e 8 92
e 8 94
e 8 95
e 8 96
e 8 97
e 8 98
e 8 100
e 8 101
e 8 102
e 8 103
e 8 104
e 8 106
e 8 107
e 9 22
e 9 31
e 9 32
e 9 35
e 9 36
e 9 37
e 9 40
e 9 45
e 9 46
e 9 47
e 9 52
e 9 57
e 9 67
e 9 69
e 9 71
e 9 73
e 9 78
e 9 79
e 9 80
e 9 81
e 9 84
e 9 85
e 9 86
e 9 87
e 9 90
e 9 91
e 9 93
e 9 99
e 9 105
e 9 108
e 10 16
e 10 20
e 10 21
e 10 28
e 10 34
e 10 38
e 10 43
e 10 44
e 10 50
e 10 51
e 10 55
e 10 56
e 10 60
e 10 61
e 10 62
e 10 63
e 10 64
e 10 67
e 10 68
e 10 83
e 10 96
e 10 97
e 10 102
e 10 104
e 10 107
e 11 19
e 11 20
e 11 30
e 11 34
e 11 35
e 11 37
e 11 43
e 11 50
e 11 51
e 11 55
e 11 56
e 11 60
e 11 61
e 11 62
e 11 63
e 11 67
e 11 68
e 11 70
e 11 78
e 11 83
e 11 89
e 11 98
e 11 100
e 11 107
e 12 16
e 12 17
e 12 18
e 12 20
e 12 21
e 12 34
e 12 43
e 12 44
e 12 50
e 12 51
e 12 55
e 12 56
e 12 60
e 12 61
e 12 62
e 12 63
e 12 64
e 12 67
e 12 68
e 12 83
e 12 96
e 12 97
e 12 102
e 12 107
e 13 14
e 13 16
e 13 20
e 13 21
e 13 26
e 13 34
e 13 43
e 13 44
e 13 50
e 13 51
e 13 55
e 13 56
e 13 60
e 13 61
e 13 62
e 13 63
e 13 64
e 13 67
e 13 68
e 13 83
e 13 96
e 13 97
e 13 102
e 13 107
e 14 16
e 14 20
e 14 21
e 14 26
e 14 34
e 14 43
e 14 44
e 14 50
e 14 51
e 14 55
e 14 56
e 14 60
e 14 61
e 14 62
e 14 63
e 14 64
e 14 67
e 14 68
e 14 83
e 14 96
e 14 97
e 14 102
e 14 107
e 15 16
e 15 20
e 15 21
e 15 34
e 15 38
e 15 43
e 15 44
e 15 50
e 15 51
e 15 55
e 15 56
e 15 60
e 15 61
e 15 62
e 15 63
e 15 64
e 15 67
e 15 68
e 15 83
e 15 97
e 15 102
e 15 104
e 15 107
e 16 17
e 16 18
e 16 20
e 16 21
e 16 23
e 16 24
e 16 25
e 16 26
e 16 27
e 16 28
e 16 29
e 16 34
e 16 38
e 16 39
e 16 41
e 16 42
e 16 43
e 16 44
e 16 45
e 16 46
e 16 47
e 16 48
e 16 50
e 16 51
e 16 53
e 16 55
e 16 56
e 16 58
e 16 59
e 16 60
e 16 61
e 16 62
e 16 63
e 16 64
e 16 65
e 16 66
e 16 67
e 16 68
e 16 72
e 16 74
e 16 75
e 16 76
e 16 77
e 16 82
e 16 83
e 16 84
e 16 88
e 16 92
e 16 94
e 16 95
e 16 96
e 16 97
e 16 101
e 16 102
e 16 103
e 16 104
e 16 106
e 16 107
e 16 108
e 17 18
e 17 20
e 17 21
e 17 24
e 17 25
e 17 29
e 17 34
e 17 39
e 17 43
e 17 44
e 17 45
e 17 46
e 17 47
e 17 49
e 17 50
e 17 51
e 17 53
e 17 54
e 17 55
e 17 56
e 17 59
e 17 60
e 17 61
e 17 62
e 17 63
e 17 64
e 17 66
e 17 67
e 17 68
e 17 76
e 17 77
e 17 82
e 17 83
e 17 84
e 17 88
e 17 92
e 17 96
e 17 97
e 17 101
e 17 102
e 17 106
e 17 107
e 17 108
e 18 20
e 18 21
e 18 24
e 18 25
e 18 29
e 18 34
e 18 39
e 18 43
e 18 44
e 18 45
e 18 46
e 18 47
e 18 49
e 18 50
e 18 51
e 18 53
e 18 54
e 18 55
e 18 56
e 18 59
e 18 60
e 18 61
e 18 62
e 18 63
e 18 64
e 18 66
e 18 67
e 18 68
e 18 76
e 18 77
e 18 82
e 18 83
e 18 84
e 18 96
e 18 97
e 18 101
e 18 102
e 18 106
e 18 107
e 18 108
e 19 20
e 19 30
e 19 34
e 19 35
e 19 36
e 19 37
e 19 43
e 19 50
e 19 51
e 19 55
e 19 56
e 19 60
e 19 61
e 19 62
e 19 63
e 19 67
e 19 68
e 19 70
e 19 78
e 19 83
e 19 89
e 19 98
e 19 100
e 19 107
e 20 21
e 20 23
e 20 24
e 20 25
e 20 26
e 20 27
e 20 28
e 20 29
e 20 30
e 20 32
e 20 33
e 20 34
e 20 37
e 20 38
e 20 39
e 20 41
e 20 42
e 20 43
e 20 44
e 20 48
e 20 49
e 20 50
e 20 51
e 20 53
e 20 54
e 20 55
e 20 56
e 20 58
e 20 59
e 20 60
e 20 61
e 20 62
e 20 63
e 20 64
e 20 65
e 20 66
e 20 68
e 20 70
e 20 72
e 20 74
e 20 75
e 20 76
e 20 77
e 20 78
e 20 82
e 20 83
e 20 88
e 20 89
e 20 92
e 20 94
e 20 95
e 20 96
e 20 97
e 20 98
e 20 100
e 20 101
e 20 102
e 20 103
e 20 104
e 20 106
e 20 107
e 21 23
e 21 24
e 21 25
e 21 26
e 21 27
e 21 28
e 21 29
e 21 34
e 21 38
e 21 39
e 21 41
e 21 42
e 21 43
e 21 44
e 21 48
e 21 49
e 21 50
e 21 51
e 21 53
e 21 54
e 21 55
e 21 56
e 21 58
e 21 59
e 21 60
e 21 61
e 21 62
e 21 63
e 21 64
e 21 65
e 21 66
e 21 67
e 21 68
e 21 72
e 21 74
e 21 75
e 21 76
e 21 77
e 21 82
e 21 83
e 21 88
e 21 92
e 21 94
e 21 95
e 21 96
e 21 97
e 21 101
e 21 102
e 21 103
e 21 104
e 21 106
e 21 107
e 22 31
e 22 32
e 22 33
e 22 35
e 22 36
e 22 37
e 22 40
e 22 45
e 22 46
e 22 47
e 22 52
e 22 57
e 22 67
e 22 69
e 22 70
e 22 71
e 22 73
e 22 78
e 22 79
e 22 80
e 22 81
e 22 84
e 22 85
e 22 86
e 22 87
e 22 89
e 22 90
e 22 91
e 22 93
e 22 98
e 22 99
e 22 105
e 22 108
e 23 26
e 23 34
e 23 42
e 23 43
e 23 44
e 23 50
e 23 51
e 23 55
e 23 56
e 23 60
e 23 61
e 23 62
e 23 63
e 23 64
e 23 67
e 23 68
e 23 83
e 23 95
e 23 96
e 23 97
e 23 102
e 23 103
e 23 107
e 24 34
e 24 39
e 24 43
e 24 44
e 24 50
e 24 51
e 24 55
e 24 56
e 24 59
e 24 60
e 24 61
e 24 62
e 24 63
e 24 64
e 24 67
e 24 68
e 24 76
e 24 83
e 24 96
e 24 107
e 25 34
e 25 43
e 25 44
e 25 50
e 25 51
e 25 55
e 25 56
e 25 60
e 25 61
e 25 62
e 25 63
e 25 64
e 25 66
e 25 67
e 25 68
e 25 83
e 25 96
e 25 107
e 26 27
e 26 34
e 26 41
e 26 42
e 26 43
e 26 44
e 26 50
e 26 51
e 26 55
e 26 56
e 26 60
e 26 61
e 26 62
e 26 63
e 26 64
e 26 67
e 26 68
e 26 72
e 26 83
e 26 92
e 26 95
e 26 96
e 26 97
e 26 102
e 26 103
e 26 104
e 26 107
e 27 34
e 27 41
e 27 43
e 27 44
e 27 48
e 27 50
e 27 51
e 27 55
e 27 56
e 27 60
e 27 61
e 27 62
e 27 63
e 27 64
e 27 67
e 27 68
e 27 72
e 27 83
e 27 92
e 27 96
e 27 97
e 27 102
e 27 103
e 27 107
e 28 34
e 28 38
e 28 43
e 28 44
e 28 50
e 28 51
e 28 55
e 28 56
e 28 60
e 28 61
e 28 62
e 28 63
e 28 64
e 28 65
e 28 67
e 28 68
e 28 83
e 28 94
e 28 96
e 28 97
e 28 102
e 28 104
e 28 107
e 29 34
e 29 43
e 29 44
e 29 50
e 29 51
e 29 55
e 29 56
e 29 60
e 29 61
e 29 62
e 29 63
e 29 64
e 29 67
e 29 68
e 29 83
e 29 96
e 29 107
e 30 34
e 30 37
e 30 43
e 30 50
e 30 51
e 30 55
e 30 56
e 30 60
e 30 61
e 30 62
e 30 63
e 30 67
e 30 68
e 30 70
e 30 78
e 30 83
e 30 89
e 30 98
e 30 100
e 30 107
e 31 32
e 31 33
e 31 35
e 31 36
e 31 37
e 31 40
e 31 45
e 31 46
e 31 47
e 31 52
e 31 57
e 31 67
e 31 69
e 31 71
e 31 73
e 31 78
e 31 79
e 31 80
e 31 81
e 31 84
e 31 85
e 31 86
e 31 87
e 31 89
e 31 90
e 31 91
e 31 93
e 31 99
e 31 105
e 31 108
e 32 34
e 32 35
e 32 36
e 32 43
e 32 50
e 32 51
e 32 52
e 32 55
e 32 56
e 32 60
e 32 61
e 32 63
e 32 68
e 32 69
e 32 83
e 32 87
e 32 107
e 33 34
e 33 35
e 33 36
e 33 43
e 33 50
e 33 51
e 33 55
e 33 56
e 33 60
e 33 61
e 33 63
e 33 68
e 33 69
e 33 83
e 33 87
e 33 107
e 34 37
e 34 38
e 34 39
e 34 40
e 34 41
e 34 42
e 34 43
e 34 44
e 34 48
e 34 49
e 34 50
e 34 51
e 34 53
e 34 54
e 34 55
e 34 56
e 34 57
e 34 58
e 34 59
e 34 60
e 34 61
e 34 62
e 34 63
e 34 64
e 34 65
e 34 66
e 34 68
e 34 70
e 34 71
e 34 72
e 34 74
e 34 75
e 34 76
e 34 77
e 34 78
e 34 82
e 34 83
e 34 85
e 34 86
e 34 88
e 34 89
e 34 92
e 34 93
e 34 94
e 34 95
e 34 96
e 34 97
e 34 98
e 34 99
e 34 100
e 34 101
e 34 102
e 34 103
e 34 104
e 34 105
e 34 106
e 34 107
e 35 36
e 35 37
e 35 40
e 35 45
e 35 46
e 35 47
e 35 52
e 35 57
e 35 67
e 35 69
e 35 70
e 35 71
e 35 73
e 35 78
e 35 79
e 35 80
e 35 81
e 35 84
e 35 85
e 35 86
e 35 87
e 35 89
e 35 90
e 35 91
e 35 93
e 35 98
e 35 99
e 35 100
e 35 105
e 35 108
e 36 37
e 36 40
e 36 45
e 36 46
e 36 47
e 36 52
e 36 57
e 36 67
e 36 69
e 36 70
e 36 71
e 36 73
e 36 78
e 36 79
e 36 80
e 36 81
e 36 84
e 36 85
e 36 86
e 36 87
e 36 89
e 36 90
e 36 91
e 36 93
e 36 98
e 36 99
e 36 100
e 36 105
e 36 108
e 37 43
e 37 50
e 37 51
e 37 55
e 37 56
e 37 60
e 37 61
e 37 62
e 37 63
e 37 67
e 37 68
e 37 69
e 37 70
e 37 78
e 37 83
e 37 87
e 37 89
e 37 98
e 37 100
e 37 107
e 38 43
e 38 44
e 38 50
e 38 51
e 38 55
e 38 56
e 38 60
e 38 61
e 38 62
e 38 63
e 38 64
e 38 65
e 38 67
e 38 68
e 38 83
e 38 94
e 38 96
e 38 97
e 38 102
e 38 104
e 38 107
e 39 43
e 39 44
e 39 50
e 39 51
e 39 55
e 39 56
e 39 59
e 39 60
e 39 61
e 39 62
e 39 63
e 39 64
e 39 67
e 39 68
e 39 76
e 39 83
e 39 96
e 39 102
e 39 106
e 39 107
e 40 43
e 40 45
e 40 46
e 40 47
e 40 50
e 40 52
e 40 55
e 40 57
e 40 60
e 40 67
e 40 68
e 40 69
e 40 80
e 40 84
e 40 85
e 40 86
e 40 87
e 40 93
e 40 99
e 40 105
e 40 107
e 40 108
e 41 43
e 41 44
e 41 50
e 41 51
e 41 55
e 41 56
e 41 60
e 41 61
e 41 62
e 41 63
e 41 64
e 41 67
e 41 68
e 41 83
e 41 96
e 41 97
e 41 102
e 41 103
e 41 107
e 42 43
e 42 44
e 42 50
e 42 51
e 42 55
e 42 56
e 42 60
e 42 61
e 42 62
e 42 63
e 42 64
e 42 67
e 42 68
e 42 83
e 42 96
e 42 97
e 42 102
e 42 107
e 43 44
e 43 48
e 43 49
e 43 50
e 43 51
e 43 53
e 43 54
e 43 55
e 43 56
e 43 57
e 43 58
e 43 59
e 43 60
e 43 61
e 43 62
e 43 63
e 43 64
e 43 65
e 43 66
e 43 68
e 43 70
e 43 71
e 43 72
e 43 74
e 43 75
e 43 76
e 43 77
e 43 78
e 43 82
e 43 83
e 43 85
e 43 86
e 43 88
e 43 89
e 43 92
e 43 93
e 43 94
e 43 95
e 43 96
e 43 97
e 43 98
e 43 99
e 43 100
e 43 101
e 43 102
e 43 103
e 43 104
e 43 105
e 43 106
e 43 107
e 44 45
e 44 46
e 44 47
e 44 48
e 44 50
e 44 51
e 44 53
e 44 55
e 44 56
e 44 58
e 44 59
e 44 60
e 44 61
e 44 62
e 44 63
e 44 64
e 44 65
e 44 66
e 44 67
e 44 68
e 44 72
e 44 74
e 44 75
e 44 76
e 44 77
e 44 82
e 44 83
e 44 84
e 44 88
e 44 92
e 44 94
e 44 95
e 44 96
e 44 97
e 44 101
e 44 102
e 44 103
e 44 104
e 44 106
e 44 107
e 44 108
e 45 46
e 45 47
e 45 49
e 45 52
e 45 57
e 45 62
e 45 64
e 45 67
e 45 69
e 45 71
e 45 73
e 45 79
e 45 80
e 45 81
e 45 84
e 45 85
e 45 86
e 45 87
e 45 90
e 45 91
e 45 93
e 45 96
e 45 99
e 45 105
e 45 108
e 46 47
e 46 49
e 46 52
e 46 57
e 46 62
e 46 64
e 46 67
e 46 69
e 46 71
e 46 73
e 46 79
e 46 80
e 46 81
e 46 84
e 46 85
e 46 86
e 46 87
e 46 90
e 46 91
e 46 93
e 46 96
e 46 99
e 46 105
e 46 108
e 47 49
e 47 52
e 47 57
e 47 62
e 47 64
e 47 67
e 47 69
e 47 71
e 47 73
e 47 79
e 47 80
e 47 81
e 47 84
e 47 85
e 47 86
e 47 87
e 47 90
e 47 91
e 47 93
e 47 96
e 47 99
e 47 105
e 47 108
e 48 50
e 48 51
e 48 55
e 48 56
e 48 58
e 48 60
e 48 61
e 48 62
e 48 63
e 48 64
e 48 67
e 48 68
e 48 83
e 48 88
e 48 92
e 48 96
e 48 97
e 48 102
e 48 103
e 48 107
e 49 50
e 49 51
e 49 54
e 49 55
e 49 56
e 49 60
e 49 61
e 49 62
e 49 63
e 49 67
e 49 68
e 49 83
e 49 84
e 49 107
e 49 108
e 50 51
e 50 53
e 50 54
e 50 55
e 50 56
e 50 57
e 50 58
e 50 59
e 50 60
e 50 61
e 50 62
e 50 63
e 50 64
e 50 65
e 50 66
e 50 68
e 50 70
e 50 71
e 50 72
e 50 73
e 50 74
e 50 75
e 50 76
e 50 77
e 50 78
e 50 79
e 50 81
e 50 82
e 50 83
e 50 85
e 50 86
e 50 88
e 50 89
e 50 90
e 50 91
e 50 92
e 50 93
e 50 94
e 50 95
e 50 96
e 50 97
e 50 98
e 50 99
e 50 100
e 50 101
e 50 102
e 50 103
e 50 104
e 50 105
e 50 106
e 50 107
e 51 53
e 51 54
e 51 55
e 51 56
e 51 58
e 51 59
e 51 60
e 51 61
e 51 62
e 51 63
e 51 64
e 51 65
e 51 66
e 51 68
e 51 70
e 51 71
e 51 72
e 51 74
e 51 75
e 51 76
e 51 77
e 51 78
e 51 82
e 51 83
e 51 88
e 51 89
e 51 90
e 51 92
e 51 94
e 51 95
e 51 96
e 51 97
e 51 98
e 51 100
e 51 101
e 51 102
e 51 103
e 51 104
e 51 106
e 51 107
e 52 57
e 52 67
e 52 69
e 52 71
e 52 73
e 52 78
e 52 79
e 52 80
e 52 81
e 52 84
e 52 85
e 52 86
e 52 87
e 52 90
e 52 91
e 52 93
e 52 99
e 52 105
e 52 108
e 53 55
e 53 56
e 53 60
e 53 61
e 53 62
e 53 63
e 53 64
e 53 67
e 53 68
e 53 83
e 53 96
e 53 97
e 53 101
e 53 102
e 53 107
e 54 55
e 54 56
e 54 60
e 54 61
e 54 62
e 54 63
e 54 67
e 54 68
e 54 83
e 54 107
e 55 56
e 55 57
e 55 58
e 55 59
e 55 60
e 55 61
e 55 62
e 55 63
e 55 64
e 55 65
e 55 66
e 55 68
e 55 70
e 55 71
e 55 72
e 55 74
e 55 75
e 55 76
e 55 77
e 55 78
e 55 82
e 55 83
e 55 85
e 55 86
e 55 88
e 55 89
e 55 92
e 55 93
e 55 94
e 55 95
e 55 96
e 55 97
e 55 98
e 55 99
e 55 100
e 55 101
e 55 102
e 55 103
e 55 104
e 55 105
e 55 106
e 55 107
e 56 58
e 56 59
e 56 60
e 56 61
e 56 62
e 56 63
e 56 64
e 56 65
e 56 66
e 56 68
e 56 70
e 56 71
e 56 72
e 56 73
e 56 74
e 56 75
e 56 76
e 56 77
e 56 78
e 56 79
e 56 81
e 56 82
e 56 83
e 56 85
e 56 88
e 56 89
e 56 90
e 56 91
e 56 92
e 56 94
e 56 95
e 56 96
e 56 97
e 56 98
e 56 100
e 56 101
e 56 102
e 56 103
e 56 104
e 56 106
e 56 107
e 57 60
e 57 67
e 57 68
e 57 69
e 57 80
e 57 84
e 57 85
e 57 86
e 57 87
e 57 93
e 57 99
e 57 105
e 57 107
e 57 108
e 58 60
e 58 61
e 58 62
e 58 63
e 58 64
e 58 67
e 58 68
e 58 83
e 58 88
e 58 92
e 58 96
e 58 97
e 58 102
e 58 103
e 58 107
e 59 60
e 59 61
e 59 62
e 59 63
e 59 64
e 59 67
e 59 68
e 59 76
e 59 83
e 59 96
e 59 107
e 60 61
e 60 62
e 60 63
e 60 64
e 60 65
e 60 66
e 60 68
e 60 70
e 60 71
e 60 72
e 60 74
e 60 75
e 60 76
e 60 77
e 60 78
e 60 82
e 60 83
e 60 85
e 60 86
e 60 88
e 60 89
e 60 92
e 60 93
e 60 94
e 60 95
e 60 96
e 60 97
e 60 98
e 60 99
e 60 100
e 60 101
e 60 102
e 60 103
e 60 104
e 60 105
e 60 106
e 60 107
e 61 62
e 61 63
e 61 64
e 61 65
e 61 66
e 61 68
e 61 70
e 61 71
e 61 72
e 61 73
e 61 74
e 61 75
e 61 76
e 61 77
e 61 78
e 61 79
e 61 81
e 61 82
e 61 83
e 61 88
e 61 89
e 61 90
e 61 91
e 61 92
e 61 94
e 61 95
e 61 96
e 61 97
e 61 98
e 61 100
e 61 101
e 61 102
e 61 103
e 61 104
e 61 106
e 61 107
e 62 63
e 62 64
e 62 65
e 62 66
e 62 67
e 62 68
e 62 70
e 62 72
e 62 74
e 62 75
e 62 76
e 62 77
e 62 78
e 62 82
e 62 83
e 62 84
e 62 88
e 62 89
e 62 92
e 62 94
e 62 95
e 62 96
e 62 97
e 62 98
e 62 100
e 62 101
e 62 102
e 62 103
e 62 104
e 62 106
e 62 107
e 62 108
e 63 64
e 63 65
e 63 66
e 63 68
e 63 70
e 63 71
e 63 72
e 63 73
e 63 74
e 63 75
e 63 76
e 63 77
e 63 78
e 63 82
e 63 83
e 63 88
e 63 89
e 63 90
e 63 92
e 63 94
e 63 95
e 63 96
e 63 97
e 63 98
e 63 100
e 63 101
e 63 102
e 63 103
e 63 104
e 63 106
e 63 107
e 64 65
e 64 66
e 64 67
e 64 68
e 64 72
e 64 74
e 64 75
e 64 76
e 64 77
e 64 82
e 64 83
e 64 84
e 64 88
e 64 92
e 64 94
e 64 95
e 64 96
e 64 97
e 64 101
e 64 102
e 64 103
e 64 104
e 64 106
e 64 107
e 64 108
e 65 67
e 65 68
e 65 83
e 65 94
e 65 96
e 65 97
e 65 102
e 65 104
e 65 107
e 66 67
e 66 68
e 66 83
e 66 96
e 66 107
e 67 69
e 67 70
e 67 71
e 67 72
e 67 73
e 67 74
e 67 75
e 67 76
e 67 77
e 67 78
e 67 79
e 67 80
e 67 81
e 67 82
e 67 84
e 67 85
e 67 86
e 67 87
e 67 88
e 67 89
e 67 90
e 67 91
e 67 92
e 67 93
e 67 94
e 67 95
e 67 96
e 67 97
e 67 98
e 67 99
e 67 100
e 67 101
e 67 102
e 67 103
e 67 104
e 67 105
e 67 106
e 67 108
e 68 70
e 68 71
e 68 72
e 68 74
e 68 75
e 68 76
e 68 77
e 68 78
e 68 82
e 68 83
e 68 85
e 68 86
e 68 88
e 68 89
e 68 92
e 68 93
e 68 94
e 68 95
e 68 96
e 68 97
e 68 98
e 68 99
e 68 100
e 68 101
e 68 102
e 68 103
e 68 104
e 68 105
e 68 106
e 68 107
e 69 70
e 69 71
e 69 73
e 69 78
e 69 79
e 69 80
e 69 81
e 69 84
e 69 85
e 69 86
e 69 87
e 69 89
e 69 90
e 69 91
e 69 93
e 69 98
e 69 99
e 69 100
e 69 105
e 69 108
e 70 78
e 70 83
e 70 89
e 70 98
e 70 100
e 70 107
e 71 80
e 71 83
e 71 84
e 71 87
e 71 107
e 71 108
e 72 83
e 72 92
e 72 96
e 72 97
e 72 102
e 72 103
e 72 107
e 73 79
e 73 80
e 73 81
e 73 83
e 73 84
e 73 85
e 73 86
e 73 87
e 73 90
e 73 91
e 73 93
e 73 107
e 73 108
e 74 75
e 74 83
e 74 88
e 74 92
e 74 96
e 74 97
e 74 102
e 74 103
e 74 107
e 75 83
e 75 88
e 75 92
e 75 96
e 75 97
e 75 102
e 75 103
e 75 107
e 76 83
e 76 96
e 76 107
e 77 82
e 77 83
e 77 96
e 77 107
e 78 83
e 78 87
e 78 89
e 78 98
e 78 100
e 78 107
e 79 80
e 79 81
e 79 83
e 79 84
e 79 85
e 79 86
e 79 87
e 79 90
e 79 91
e 79 93
e 79 107
e 79 108
e 80 81
e 80 84
e 80 85
e 80 86
e 80 87
e 80 90
e 80 91
e 80 93
e 80 99
e 80 105
e 80 108
e 81 84
e 81 85
e 81 86
e 81 87
e 81 90
e 81 91
e 81 93
e 81 107
e 81 108
e 82 83
e 82 96
e 82 107
e 83 88
e 83 89
e 83 90
e 83 91
e 83 92
e 83 94
e 83 95
e 83 96
e 83 97
e 83 98
e 83 100
e 83 101
e 83 102
e 83 103
e 83 104
e 83 106
e 83 107
e 84 85
e 84 86
e 84 87
e 84 90
e 84 91
e 84 93
e 84 96
e 84 99
e 84 105
e 84 108
e 85 86
e 85 87
e 85 90
e 85 91
e 85 93
e 85 99
e 85 105
e 85 107
e 85 108
e 86 87
e 86 90
e 86 91
e 86 93
e 86 99
e 86 105
e 86 107
e 86 108
e 87 89
e 87 90
e 87 91
e 87 93
e 87 98
e 87 99
e 87 105
e 87 108
e 88 92
e 88 96
e 88 97
e 88 102
e 88 103
e 88 107
e 89 98
e 89 100
e 89 107
e 90 91
e 90 93
e 90 107
e 90 108
e 91 93
e 91 107
e 91 108
e 92 96
e 92 97
e 92 102
e 92 103
e 92 107
e 93 99
e 93 105
e 93 107
e 93 108
e 94 96
e 94 97
e 94 102
e 94 104
e 94 107
e 95 96
e 95 97
e 95 102
e 95 103
e 95 107
e 96 97
e 96 101
e 96 102
e 96 103
e 96 104
e 96 106
e 96 107
e 96 108
e 97 101
e 97 102
e 97 103
e 97 104
e 97 107
e 98 100
e 98 107
e 99 105
e 99 107
e 99 108
e 100 107
e 101 102
e 101 107
e 102 103
e 102 104
e 102 106
e 102 107
e 103 107
e 104 107
e 105 107
e 105 108
e 106 107
